c is-unsat
p cnf 6 52
-5 -4 -2 0
-5 -4 -6 0
-4 -5 2 0
-4 5 6 0
3 2 4 0
-6 -5 3 0
-3 -2 -6 0
-1 -5 6 0
-1 -2 -5 0
-6 -2 -5 0
4 -3 1 0
-6 1 -2 0
-6 -3 -5 0
-6 -2 -5 0
2 -5 3 0
-1 -2 -5 0
-2 -1 -4 0
-3 -6 2 0
-6 2 -5 0
3 -1 4 0
1 3 -2 0
-3 1 -5 0
-2 6 -5 0
3 6 -2 0
-5 3 -4 0
-3 -2 -6 0
2 4 6 0
-1 -2 -5 0
6 2 5 0
-6 -2 1 0
3 -4 6 0
6 2 -5 0
-2 6 -4 0
5 3 1 0
-5 -1 -3 0
-5 -2 6 0
-1 -5 -2 0
-5 -2 3 0
2 1 4 0
-5 -1 -4 0
-5 -3 6 0
-6 -2 5 0
-6 -2 -4 0
-2 -6 -4 0
-6 -1 -2 0
-1 -6 -2 0
-6 -4 -1 0
-1 4 -3 0
6 2 1 0
-5 6 -4 0
-1 -3 -6 0
4 -3 -5 0
